8781
1431
8178
5414
2178
3600
4603
5256
6305
9399
1560
3320
842
1910
9372
3609
492
981
8865
6700
6998
7896
1401
9476
9242
8521
3759
448
8881
9662
6758
8064
2732
9405
8796
6609
6234
8269
3855
3647
2625
5906
9241
6428
5093
6116
395
2464
2676
6803
2151
